(set-info :smt-lib-version 2.6)
(set-logic QF_NRA)
(set-info :source |Benchmarks generated from hycomp (https://es-static.fbk.eu/tools/hycomp/). BMC instances of non-linear hybrid automata taken from: Alessandro Cimatti, Sergio Mover, Stefano Tonetta, A quantifier-free SMT encoding of non-linear hybrid automata, FMCAD 2012 and Alessandro Cimatti, Sergio Mover, Stefano Tonetta, Quantier-free encoding of invariants for Hybrid Systems, Formal Methods in System Design. This instance solves a BMC problem of depth 4 and uses the encoding obtained with quantifier elimination using redlog encoding. Contacts: Sergio Mover (mover@fbk.eu), Stefano Tonetta (tonettas@fbk.eu), Alessandro Cimatti (cimatti@fbk.eu).|)
(set-info :category "industrial")
(set-info :status sat)
;; MathSAT API call trace
;; generated on Mon Mar 19 10:48:57 2012
(declare-fun b.bool_atom__AT3 () Bool)
(declare-fun b.delta__AT4 () Real)
(declare-fun b.counter.1__AT4 () Bool)
(declare-fun b.x__AT4 () Real)
(declare-fun b.y__AT0 () Real)
(declare-fun b.EVENT.0__AT4 () Bool)
(declare-fun b.counter.2__AT4 () Bool)
(declare-fun b.speed_y__AT3 () Real)
(declare-fun b.event_is_timed__AT2 () Bool)
(declare-fun b.counter.0__AT0 () Bool)
(declare-fun b.EVENT.1__AT4 () Bool)
(declare-fun b.counter.3__AT4 () Bool)
(declare-fun b.EVENT.0__AT0 () Bool)
(declare-fun b.counter.3__AT0 () Bool)
(declare-fun b.counter.1__AT0 () Bool)
(declare-fun b.bool_atom__AT4 () Bool)
(declare-fun b.bool_atom__AT1 () Bool)
(declare-fun b.x__AT1 () Real)
(declare-fun b.bool_atom__AT2 () Bool)
(declare-fun b.y__AT2 () Real)
(declare-fun b.speed_y__AT4 () Real)
(declare-fun b.time__AT2 () Real)
(declare-fun b.delta__AT2 () Real)
(declare-fun b.x__AT2 () Real)
(declare-fun b.EVENT.0__AT2 () Bool)
(declare-fun b.g__AT0 () Real)
(declare-fun b.speed_y__AT0 () Real)
(declare-fun b.event_is_timed__AT0 () Bool)
(declare-fun b.EVENT.1__AT2 () Bool)
(declare-fun b.y__AT1 () Real)
(declare-fun b.counter.2__AT0 () Bool)
(declare-fun b.counter.0__AT1 () Bool)
(declare-fun b.counter.1__AT1 () Bool)
(declare-fun b.speed_y__AT2 () Real)
(declare-fun b.counter.2__AT1 () Bool)
(declare-fun b.time__AT3 () Real)
(declare-fun b.event_is_timed__AT3 () Bool)
(declare-fun b.counter.3__AT1 () Bool)
(declare-fun b.bool_atom__AT0 () Bool)
(declare-fun b.delta__AT3 () Real)
(declare-fun b.x__AT0 () Real)
(declare-fun b.EVENT.0__AT3 () Bool)
(declare-fun b.EVENT.1__AT0 () Bool)
(declare-fun b.counter.0__AT2 () Bool)
(declare-fun b.delta__AT1 () Real)
(declare-fun b.counter.1__AT2 () Bool)
(declare-fun b.speed_y__AT1 () Real)
(declare-fun b.y__AT3 () Real)
(declare-fun b.time__AT1 () Real)
(declare-fun b.event_is_timed__AT4 () Bool)
(declare-fun b.EVENT.0__AT1 () Bool)
(declare-fun b.counter.2__AT2 () Bool)
(declare-fun b.counter.0__AT3 () Bool)
(declare-fun b.time__AT0 () Real)
(declare-fun b.EVENT.1__AT1 () Bool)
(declare-fun b.counter.3__AT2 () Bool)
(declare-fun b.counter.1__AT3 () Bool)
(declare-fun b.delta__AT0 () Real)
(declare-fun b.x__AT3 () Real)
(declare-fun b.counter.2__AT3 () Bool)
(declare-fun b.y__AT4 () Real)
(declare-fun b.EVENT.1__AT3 () Bool)
(declare-fun b.event_is_timed__AT1 () Bool)
(declare-fun b.counter.3__AT3 () Bool)
(declare-fun b.time__AT4 () Real)
(declare-fun b.counter.0__AT4 () Bool)
(assert (let ((.def_930 (* b.x__AT4 b.x__AT4)))
(let ((.def_926 (* 5.0 b.delta__AT4)))
(let ((.def_927 (* b.delta__AT4 .def_926)))
(let ((.def_928 (* (- 1.0) .def_927)))
(let ((.def_933 (+ .def_928 .def_930)))
(let ((.def_925 (* b.speed_y__AT4 b.delta__AT4)))
(let ((.def_934 (+ .def_925 .def_933)))
(let ((.def_935 (+ b.y__AT4 .def_934)))
(let ((.def_936 (<= 0.0 .def_935)))
(let ((.def_966 (not .def_936)))
(let ((.def_948 (* (- 10.0) b.delta__AT4)))
(let ((.def_949 (+ b.speed_y__AT4 .def_948)))
(let ((.def_950 (<= 0.0 .def_949)))
(let ((.def_967 (and .def_950 .def_966)))
(let ((.def_959 (+ b.y__AT4 .def_930)))
(let ((.def_964 (<= 0.0 .def_959)))
(let ((.def_961 (<= b.speed_y__AT4 0.0 )))
(let ((.def_965 (or .def_961 .def_964)))
(let ((.def_968 (or .def_965 .def_967)))
(let ((.def_960 (<= .def_959 0.0 )))
(let ((.def_962 (and .def_960 .def_961)))
(let ((.def_954 (<= .def_949 0.0 )))
(let ((.def_955 (not .def_954)))
(let ((.def_952 (= .def_935 0.0 )))
(let ((.def_953 (not .def_952)))
(let ((.def_956 (or .def_953 .def_955)))
(let ((.def_951 (or .def_936 .def_950)))
(let ((.def_957 (and .def_951 .def_956)))
(let ((.def_938 (* 20.0 b.x__AT4)))
(let ((.def_939 (* b.x__AT4 .def_938)))
(let ((.def_816 (* b.speed_y__AT4 b.speed_y__AT4)))
(let ((.def_940 (+ .def_816 .def_939)))
(let ((.def_941 (* 20.0 b.y__AT4)))
(let ((.def_943 (+ .def_941 .def_940)))
(let ((.def_946 (<= .def_943 0.0 )))
(let ((.def_947 (not .def_946)))
(let ((.def_958 (or .def_947 .def_957)))
(let ((.def_963 (or .def_958 .def_962)))
(let ((.def_969 (and .def_963 .def_968)))
(let ((.def_944 (<= 0.0 .def_943)))
(let ((.def_945 (not .def_944)))
(let ((.def_970 (or .def_945 .def_969)))
(let ((.def_923 (<= 0.0 b.delta__AT4)))
(let ((.def_924 (not .def_923)))
(let ((.def_937 (or .def_924 .def_936)))
(let ((.def_971 (and .def_937 .def_970)))
(let ((.def_907 (not b.EVENT.0__AT4)))
(let ((.def_905 (not b.EVENT.1__AT4)))
(let ((.def_920 (and .def_905 .def_907)))
(let ((.def_921 (not .def_920)))
(let ((.def_972 (or .def_921 .def_971)))
(let ((.def_619 (not b.counter.0__AT3)))
(let ((.def_609 (not b.counter.1__AT3)))
(let ((.def_916 (and .def_609 .def_619)))
(let ((.def_614 (not b.counter.2__AT3)))
(let ((.def_917 (and .def_614 .def_916)))
(let ((.def_910 (* (- 1.0) b.x__AT4)))
(let ((.def_911 (* b.x__AT4 .def_910)))
(let ((.def_912 (<= .def_911 b.y__AT4)))
(let ((.def_57 (<= b.g__AT0 10.0 )))
(let ((.def_56 (<= 8.0 b.g__AT0)))
(let ((.def_58 (and .def_56 .def_57)))
(let ((.def_913 (and .def_58 .def_912)))
(let ((.def_908 (or .def_905 .def_907)))
(let ((.def_6 (not b.counter.0__AT4)))
(let ((.def_4 (not b.counter.1__AT4)))
(let ((.def_898 (or .def_4 .def_6)))
(let ((.def_902 (or b.counter.3__AT4 .def_898)))
(let ((.def_899 (or b.counter.2__AT4 .def_898)))
(let ((.def_9 (not b.counter.2__AT4)))
(let ((.def_897 (or .def_6 .def_9)))
(let ((.def_900 (and .def_897 .def_899)))
(let ((.def_835 (not b.counter.3__AT4)))
(let ((.def_901 (or .def_835 .def_900)))
(let ((.def_903 (and .def_901 .def_902)))
(let ((.def_909 (and .def_903 .def_908)))
(let ((.def_914 (and .def_909 .def_913)))
(let ((.def_716 (<= 0.0 b.delta__AT3)))
(let ((.def_700 (not b.EVENT.0__AT3)))
(let ((.def_698 (not b.EVENT.1__AT3)))
(let ((.def_713 (and .def_698 .def_700)))
(let ((.def_714 (not .def_713)))
(let ((.def_893 (or .def_714 .def_716)))
(let ((.def_894 (or b.EVENT.1__AT3 .def_893)))
(let ((.def_803 (= b.bool_atom__AT3 b.bool_atom__AT4)))
(let ((.def_799 (= b.counter.0__AT4 b.counter.0__AT3)))
(let ((.def_797 (= b.counter.1__AT4 b.counter.1__AT3)))
(let ((.def_795 (= b.counter.2__AT4 b.counter.2__AT3)))
(let ((.def_794 (= b.counter.3__AT3 b.counter.3__AT4)))
(let ((.def_796 (and .def_794 .def_795)))
(let ((.def_798 (and .def_796 .def_797)))
(let ((.def_800 (and .def_798 .def_799)))
(let ((.def_889 (and .def_800 .def_803)))
(let ((.def_890 (or .def_714 .def_889)))
(let ((.def_891 (or b.EVENT.1__AT3 .def_890)))
(let ((.def_232 (* (- 1.0) b.g__AT0)))
(let ((.def_877 (* .def_232 b.delta__AT3)))
(let ((.def_878 (* (- 1.0) b.speed_y__AT4)))
(let ((.def_881 (+ .def_878 .def_877)))
(let ((.def_882 (+ b.speed_y__AT3 .def_881)))
(let ((.def_883 (= .def_882 0.0 )))
(let ((.def_867 (* b.delta__AT3 b.delta__AT3)))
(let ((.def_235 (* (/ 1 2) .def_232)))
(let ((.def_868 (* .def_235 .def_867)))
(let ((.def_869 (* (- 1.0) b.y__AT4)))
(let ((.def_873 (+ .def_869 .def_868)))
(let ((.def_718 (* b.speed_y__AT3 b.delta__AT3)))
(let ((.def_874 (+ .def_718 .def_873)))
(let ((.def_875 (+ b.y__AT3 .def_874)))
(let ((.def_876 (= .def_875 0.0 )))
(let ((.def_884 (and .def_876 .def_883)))
(let ((.def_785 (= b.x__AT3 b.x__AT4)))
(let ((.def_885 (and .def_785 .def_884)))
(let ((.def_886 (or .def_714 .def_885)))
(let ((.def_788 (= b.y__AT3 b.y__AT4)))
(let ((.def_862 (and .def_785 .def_788)))
(let ((.def_791 (= b.speed_y__AT3 b.speed_y__AT4)))
(let ((.def_863 (and .def_791 .def_862)))
(let ((.def_859 (= b.delta__AT3 0.0 )))
(let ((.def_860 (and .def_713 .def_859)))
(let ((.def_861 (not .def_860)))
(let ((.def_864 (or .def_861 .def_863)))
(let ((.def_865 (or b.EVENT.1__AT3 .def_864)))
(let ((.def_852 (and .def_791 .def_800)))
(let ((.def_853 (or b.bool_atom__AT3 .def_852)))
(let ((.def_827 (or .def_6 b.counter.0__AT3)))
(let ((.def_826 (or b.counter.0__AT4 .def_619)))
(let ((.def_828 (and .def_826 .def_827)))
(let ((.def_829 (and .def_4 .def_828)))
(let ((.def_830 (or b.counter.1__AT3 .def_829)))
(let ((.def_825 (or b.counter.1__AT4 .def_609)))
(let ((.def_831 (and .def_825 .def_830)))
(let ((.def_843 (and .def_9 .def_831)))
(let ((.def_844 (or b.counter.2__AT3 .def_843)))
(let ((.def_838 (and .def_4 .def_619)))
(let ((.def_839 (or b.counter.1__AT3 .def_838)))
(let ((.def_840 (and .def_825 .def_839)))
(let ((.def_841 (and b.counter.2__AT4 .def_840)))
(let ((.def_842 (or .def_614 .def_841)))
(let ((.def_845 (and .def_842 .def_844)))
(let ((.def_846 (and b.counter.3__AT4 .def_845)))
(let ((.def_847 (or b.counter.3__AT3 .def_846)))
(let ((.def_832 (and b.counter.2__AT4 .def_831)))
(let ((.def_833 (or b.counter.2__AT3 .def_832)))
(let ((.def_821 (or b.counter.1__AT4 b.counter.1__AT3)))
(let ((.def_819 (and .def_4 b.counter.0__AT4)))
(let ((.def_820 (or .def_609 .def_819)))
(let ((.def_822 (and .def_820 .def_821)))
(let ((.def_823 (and .def_9 .def_822)))
(let ((.def_824 (or .def_614 .def_823)))
(let ((.def_834 (and .def_824 .def_833)))
(let ((.def_836 (and .def_834 .def_835)))
(let ((.def_628 (not b.counter.3__AT3)))
(let ((.def_837 (or .def_628 .def_836)))
(let ((.def_848 (and .def_837 .def_847)))
(let ((.def_606 (* b.speed_y__AT3 b.speed_y__AT3)))
(let ((.def_817 (= .def_606 .def_816)))
(let ((.def_814 (+ b.speed_y__AT3 b.speed_y__AT4)))
(let ((.def_815 (= .def_814 0.0 )))
(let ((.def_818 (and .def_815 .def_817)))
(let ((.def_849 (and .def_818 .def_848)))
(let ((.def_813 (not b.bool_atom__AT3)))
(let ((.def_850 (or .def_813 .def_849)))
(let ((.def_809 (<= 0.0 b.speed_y__AT3)))
(let ((.def_810 (not .def_809)))
(let ((.def_703 (* (- 1.0) b.x__AT3)))
(let ((.def_704 (* b.x__AT3 .def_703)))
(let ((.def_808 (= b.y__AT3 .def_704)))
(let ((.def_811 (and .def_808 .def_810)))
(let ((.def_812 (= b.bool_atom__AT3 .def_811)))
(let ((.def_851 (and .def_812 .def_850)))
(let ((.def_854 (and .def_851 .def_853)))
(let ((.def_855 (and .def_785 .def_854)))
(let ((.def_856 (and .def_788 .def_855)))
(let ((.def_857 (or .def_713 .def_856)))
(let ((.def_858 (or b.EVENT.1__AT3 .def_857)))
(let ((.def_866 (and .def_858 .def_865)))
(let ((.def_887 (and .def_866 .def_886)))
(let ((.def_772 (= b.time__AT3 b.time__AT4)))
(let ((.def_786 (and .def_772 .def_785)))
(let ((.def_789 (and .def_786 .def_788)))
(let ((.def_792 (and .def_789 .def_791)))
(let ((.def_801 (and .def_792 .def_800)))
(let ((.def_804 (and .def_801 .def_803)))
(let ((.def_805 (or .def_698 .def_804)))
(let ((.def_775 (* (- 1.0) b.time__AT4)))
(let ((.def_778 (+ b.delta__AT3 .def_775)))
(let ((.def_779 (+ b.time__AT3 .def_778)))
(let ((.def_780 (= .def_779 0.0 )))
(let ((.def_781 (or .def_714 .def_780)))
(let ((.def_782 (or b.EVENT.1__AT3 .def_781)))
(let ((.def_773 (or .def_713 .def_772)))
(let ((.def_774 (or b.EVENT.1__AT3 .def_773)))
(let ((.def_783 (and .def_774 .def_782)))
(let ((.def_806 (and .def_783 .def_805)))
(let ((.def_769 (= .def_714 b.event_is_timed__AT4)))
(let ((.def_767 (= b.event_is_timed__AT3 .def_713)))
(let ((.def_770 (and .def_767 .def_769)))
(let ((.def_807 (and .def_770 .def_806)))
(let ((.def_888 (and .def_807 .def_887)))
(let ((.def_892 (and .def_888 .def_891)))
(let ((.def_895 (and .def_892 .def_894)))
(let ((.def_896 (and .def_698 .def_895)))
(let ((.def_915 (and .def_896 .def_914)))
(let ((.def_918 (and .def_915 .def_917)))
(let ((.def_723 (* b.x__AT3 b.x__AT3)))
(let ((.def_719 (* 5.0 b.delta__AT3)))
(let ((.def_720 (* b.delta__AT3 .def_719)))
(let ((.def_721 (* (- 1.0) .def_720)))
(let ((.def_726 (+ .def_721 .def_723)))
(let ((.def_727 (+ .def_718 .def_726)))
(let ((.def_728 (+ b.y__AT3 .def_727)))
(let ((.def_729 (<= 0.0 .def_728)))
(let ((.def_759 (not .def_729)))
(let ((.def_741 (* (- 10.0) b.delta__AT3)))
(let ((.def_742 (+ b.speed_y__AT3 .def_741)))
(let ((.def_743 (<= 0.0 .def_742)))
(let ((.def_760 (and .def_743 .def_759)))
(let ((.def_752 (+ b.y__AT3 .def_723)))
(let ((.def_757 (<= 0.0 .def_752)))
(let ((.def_754 (<= b.speed_y__AT3 0.0 )))
(let ((.def_758 (or .def_754 .def_757)))
(let ((.def_761 (or .def_758 .def_760)))
(let ((.def_753 (<= .def_752 0.0 )))
(let ((.def_755 (and .def_753 .def_754)))
(let ((.def_747 (<= .def_742 0.0 )))
(let ((.def_748 (not .def_747)))
(let ((.def_745 (= .def_728 0.0 )))
(let ((.def_746 (not .def_745)))
(let ((.def_749 (or .def_746 .def_748)))
(let ((.def_744 (or .def_729 .def_743)))
(let ((.def_750 (and .def_744 .def_749)))
(let ((.def_731 (* 20.0 b.x__AT3)))
(let ((.def_732 (* b.x__AT3 .def_731)))
(let ((.def_733 (+ .def_606 .def_732)))
(let ((.def_734 (* 20.0 b.y__AT3)))
(let ((.def_736 (+ .def_734 .def_733)))
(let ((.def_739 (<= .def_736 0.0 )))
(let ((.def_740 (not .def_739)))
(let ((.def_751 (or .def_740 .def_750)))
(let ((.def_756 (or .def_751 .def_755)))
(let ((.def_762 (and .def_756 .def_761)))
(let ((.def_737 (<= 0.0 .def_736)))
(let ((.def_738 (not .def_737)))
(let ((.def_763 (or .def_738 .def_762)))
(let ((.def_717 (not .def_716)))
(let ((.def_730 (or .def_717 .def_729)))
(let ((.def_764 (and .def_730 .def_763)))
(let ((.def_765 (or .def_714 .def_764)))
(let ((.def_406 (not b.counter.0__AT2)))
(let ((.def_396 (not b.counter.1__AT2)))
(let ((.def_709 (and .def_396 .def_406)))
(let ((.def_401 (not b.counter.2__AT2)))
(let ((.def_710 (and .def_401 .def_709)))
(let ((.def_705 (<= .def_704 b.y__AT3)))
(let ((.def_706 (and .def_58 .def_705)))
(let ((.def_701 (or .def_698 .def_700)))
(let ((.def_691 (or .def_609 .def_619)))
(let ((.def_695 (or b.counter.3__AT3 .def_691)))
(let ((.def_692 (or b.counter.2__AT3 .def_691)))
(let ((.def_690 (or .def_614 .def_619)))
(let ((.def_693 (and .def_690 .def_692)))
(let ((.def_694 (or .def_628 .def_693)))
(let ((.def_696 (and .def_694 .def_695)))
(let ((.def_702 (and .def_696 .def_701)))
(let ((.def_707 (and .def_702 .def_706)))
(let ((.def_503 (<= 0.0 b.delta__AT2)))
(let ((.def_487 (not b.EVENT.0__AT2)))
(let ((.def_485 (not b.EVENT.1__AT2)))
(let ((.def_500 (and .def_485 .def_487)))
(let ((.def_501 (not .def_500)))
(let ((.def_686 (or .def_501 .def_503)))
(let ((.def_687 (or b.EVENT.1__AT2 .def_686)))
(let ((.def_593 (= b.bool_atom__AT2 b.bool_atom__AT3)))
(let ((.def_589 (= b.counter.0__AT2 b.counter.0__AT3)))
(let ((.def_586 (= b.counter.1__AT2 b.counter.1__AT3)))
(let ((.def_583 (= b.counter.2__AT2 b.counter.2__AT3)))
(let ((.def_581 (= b.counter.3__AT2 b.counter.3__AT3)))
(let ((.def_584 (and .def_581 .def_583)))
(let ((.def_587 (and .def_584 .def_586)))
(let ((.def_590 (and .def_587 .def_589)))
(let ((.def_682 (and .def_590 .def_593)))
(let ((.def_683 (or .def_501 .def_682)))
(let ((.def_684 (or b.EVENT.1__AT2 .def_683)))
(let ((.def_670 (* .def_232 b.delta__AT2)))
(let ((.def_671 (* (- 1.0) b.speed_y__AT3)))
(let ((.def_674 (+ .def_671 .def_670)))
(let ((.def_675 (+ b.speed_y__AT2 .def_674)))
(let ((.def_676 (= .def_675 0.0 )))
(let ((.def_660 (* b.delta__AT2 b.delta__AT2)))
(let ((.def_661 (* .def_235 .def_660)))
(let ((.def_662 (* (- 1.0) b.y__AT3)))
(let ((.def_666 (+ .def_662 .def_661)))
(let ((.def_505 (* b.speed_y__AT2 b.delta__AT2)))
(let ((.def_667 (+ .def_505 .def_666)))
(let ((.def_668 (+ b.y__AT2 .def_667)))
(let ((.def_669 (= .def_668 0.0 )))
(let ((.def_677 (and .def_669 .def_676)))
(let ((.def_572 (= b.x__AT2 b.x__AT3)))
(let ((.def_678 (and .def_572 .def_677)))
(let ((.def_679 (or .def_501 .def_678)))
(let ((.def_575 (= b.y__AT2 b.y__AT3)))
(let ((.def_655 (and .def_572 .def_575)))
(let ((.def_578 (= b.speed_y__AT2 b.speed_y__AT3)))
(let ((.def_656 (and .def_578 .def_655)))
(let ((.def_652 (= b.delta__AT2 0.0 )))
(let ((.def_653 (and .def_500 .def_652)))
(let ((.def_654 (not .def_653)))
(let ((.def_657 (or .def_654 .def_656)))
(let ((.def_658 (or b.EVENT.1__AT2 .def_657)))
(let ((.def_645 (and .def_578 .def_590)))
(let ((.def_646 (or b.bool_atom__AT2 .def_645)))
(let ((.def_620 (or b.counter.0__AT2 .def_619)))
(let ((.def_618 (or .def_406 b.counter.0__AT3)))
(let ((.def_621 (and .def_618 .def_620)))
(let ((.def_622 (and .def_609 .def_621)))
(let ((.def_623 (or b.counter.1__AT2 .def_622)))
(let ((.def_617 (or .def_396 b.counter.1__AT3)))
(let ((.def_624 (and .def_617 .def_623)))
(let ((.def_636 (and .def_614 .def_624)))
(let ((.def_637 (or b.counter.2__AT2 .def_636)))
(let ((.def_631 (and .def_406 .def_609)))
(let ((.def_632 (or b.counter.1__AT2 .def_631)))
(let ((.def_633 (and .def_617 .def_632)))
(let ((.def_634 (and b.counter.2__AT3 .def_633)))
(let ((.def_635 (or .def_401 .def_634)))
(let ((.def_638 (and .def_635 .def_637)))
(let ((.def_639 (and b.counter.3__AT3 .def_638)))
(let ((.def_640 (or b.counter.3__AT2 .def_639)))
(let ((.def_625 (and b.counter.2__AT3 .def_624)))
(let ((.def_626 (or b.counter.2__AT2 .def_625)))
(let ((.def_612 (or b.counter.1__AT2 b.counter.1__AT3)))
(let ((.def_610 (and b.counter.0__AT3 .def_609)))
(let ((.def_611 (or .def_396 .def_610)))
(let ((.def_613 (and .def_611 .def_612)))
(let ((.def_615 (and .def_613 .def_614)))
(let ((.def_616 (or .def_401 .def_615)))
(let ((.def_627 (and .def_616 .def_626)))
(let ((.def_629 (and .def_627 .def_628)))
(let ((.def_415 (not b.counter.3__AT2)))
(let ((.def_630 (or .def_415 .def_629)))
(let ((.def_641 (and .def_630 .def_640)))
(let ((.def_393 (* b.speed_y__AT2 b.speed_y__AT2)))
(let ((.def_607 (= .def_393 .def_606)))
(let ((.def_604 (+ b.speed_y__AT2 b.speed_y__AT3)))
(let ((.def_605 (= .def_604 0.0 )))
(let ((.def_608 (and .def_605 .def_607)))
(let ((.def_642 (and .def_608 .def_641)))
(let ((.def_603 (not b.bool_atom__AT2)))
(let ((.def_643 (or .def_603 .def_642)))
(let ((.def_599 (<= 0.0 b.speed_y__AT2)))
(let ((.def_600 (not .def_599)))
(let ((.def_490 (* (- 1.0) b.x__AT2)))
(let ((.def_491 (* b.x__AT2 .def_490)))
(let ((.def_598 (= b.y__AT2 .def_491)))
(let ((.def_601 (and .def_598 .def_600)))
(let ((.def_602 (= b.bool_atom__AT2 .def_601)))
(let ((.def_644 (and .def_602 .def_643)))
(let ((.def_647 (and .def_644 .def_646)))
(let ((.def_648 (and .def_572 .def_647)))
(let ((.def_649 (and .def_575 .def_648)))
(let ((.def_650 (or .def_500 .def_649)))
(let ((.def_651 (or b.EVENT.1__AT2 .def_650)))
(let ((.def_659 (and .def_651 .def_658)))
(let ((.def_680 (and .def_659 .def_679)))
(let ((.def_559 (= b.time__AT2 b.time__AT3)))
(let ((.def_573 (and .def_559 .def_572)))
(let ((.def_576 (and .def_573 .def_575)))
(let ((.def_579 (and .def_576 .def_578)))
(let ((.def_591 (and .def_579 .def_590)))
(let ((.def_594 (and .def_591 .def_593)))
(let ((.def_595 (or .def_485 .def_594)))
(let ((.def_562 (* (- 1.0) b.time__AT3)))
(let ((.def_565 (+ b.delta__AT2 .def_562)))
(let ((.def_566 (+ b.time__AT2 .def_565)))
(let ((.def_567 (= .def_566 0.0 )))
(let ((.def_568 (or .def_501 .def_567)))
(let ((.def_569 (or b.EVENT.1__AT2 .def_568)))
(let ((.def_560 (or .def_500 .def_559)))
(let ((.def_561 (or b.EVENT.1__AT2 .def_560)))
(let ((.def_570 (and .def_561 .def_569)))
(let ((.def_596 (and .def_570 .def_595)))
(let ((.def_556 (= .def_501 b.event_is_timed__AT3)))
(let ((.def_554 (= b.event_is_timed__AT2 .def_500)))
(let ((.def_557 (and .def_554 .def_556)))
(let ((.def_597 (and .def_557 .def_596)))
(let ((.def_681 (and .def_597 .def_680)))
(let ((.def_685 (and .def_681 .def_684)))
(let ((.def_688 (and .def_685 .def_687)))
(let ((.def_689 (and .def_485 .def_688)))
(let ((.def_708 (and .def_689 .def_707)))
(let ((.def_711 (and .def_708 .def_710)))
(let ((.def_510 (* b.x__AT2 b.x__AT2)))
(let ((.def_506 (* 5.0 b.delta__AT2)))
(let ((.def_507 (* b.delta__AT2 .def_506)))
(let ((.def_508 (* (- 1.0) .def_507)))
(let ((.def_513 (+ .def_508 .def_510)))
(let ((.def_514 (+ .def_505 .def_513)))
(let ((.def_515 (+ b.y__AT2 .def_514)))
(let ((.def_516 (<= 0.0 .def_515)))
(let ((.def_546 (not .def_516)))
(let ((.def_528 (* (- 10.0) b.delta__AT2)))
(let ((.def_529 (+ b.speed_y__AT2 .def_528)))
(let ((.def_530 (<= 0.0 .def_529)))
(let ((.def_547 (and .def_530 .def_546)))
(let ((.def_539 (+ b.y__AT2 .def_510)))
(let ((.def_544 (<= 0.0 .def_539)))
(let ((.def_541 (<= b.speed_y__AT2 0.0 )))
(let ((.def_545 (or .def_541 .def_544)))
(let ((.def_548 (or .def_545 .def_547)))
(let ((.def_540 (<= .def_539 0.0 )))
(let ((.def_542 (and .def_540 .def_541)))
(let ((.def_534 (<= .def_529 0.0 )))
(let ((.def_535 (not .def_534)))
(let ((.def_532 (= .def_515 0.0 )))
(let ((.def_533 (not .def_532)))
(let ((.def_536 (or .def_533 .def_535)))
(let ((.def_531 (or .def_516 .def_530)))
(let ((.def_537 (and .def_531 .def_536)))
(let ((.def_518 (* 20.0 b.x__AT2)))
(let ((.def_519 (* b.x__AT2 .def_518)))
(let ((.def_520 (+ .def_393 .def_519)))
(let ((.def_521 (* 20.0 b.y__AT2)))
(let ((.def_523 (+ .def_521 .def_520)))
(let ((.def_526 (<= .def_523 0.0 )))
(let ((.def_527 (not .def_526)))
(let ((.def_538 (or .def_527 .def_537)))
(let ((.def_543 (or .def_538 .def_542)))
(let ((.def_549 (and .def_543 .def_548)))
(let ((.def_524 (<= 0.0 .def_523)))
(let ((.def_525 (not .def_524)))
(let ((.def_550 (or .def_525 .def_549)))
(let ((.def_504 (not .def_503)))
(let ((.def_517 (or .def_504 .def_516)))
(let ((.def_551 (and .def_517 .def_550)))
(let ((.def_552 (or .def_501 .def_551)))
(let ((.def_191 (not b.counter.0__AT1)))
(let ((.def_181 (not b.counter.1__AT1)))
(let ((.def_496 (and .def_181 .def_191)))
(let ((.def_186 (not b.counter.2__AT1)))
(let ((.def_497 (and .def_186 .def_496)))
(let ((.def_492 (<= .def_491 b.y__AT2)))
(let ((.def_493 (and .def_58 .def_492)))
(let ((.def_488 (or .def_485 .def_487)))
(let ((.def_478 (or .def_396 .def_406)))
(let ((.def_482 (or b.counter.3__AT2 .def_478)))
(let ((.def_479 (or b.counter.2__AT2 .def_478)))
(let ((.def_477 (or .def_401 .def_406)))
(let ((.def_480 (and .def_477 .def_479)))
(let ((.def_481 (or .def_415 .def_480)))
(let ((.def_483 (and .def_481 .def_482)))
(let ((.def_489 (and .def_483 .def_488)))
(let ((.def_494 (and .def_489 .def_493)))
(let ((.def_290 (<= 0.0 b.delta__AT1)))
(let ((.def_276 (not b.EVENT.0__AT1)))
(let ((.def_274 (not b.EVENT.1__AT1)))
(let ((.def_287 (and .def_274 .def_276)))
(let ((.def_288 (not .def_287)))
(let ((.def_473 (or .def_288 .def_290)))
(let ((.def_474 (or b.EVENT.1__AT1 .def_473)))
(let ((.def_380 (= b.bool_atom__AT1 b.bool_atom__AT2)))
(let ((.def_376 (= b.counter.0__AT1 b.counter.0__AT2)))
(let ((.def_373 (= b.counter.1__AT1 b.counter.1__AT2)))
(let ((.def_370 (= b.counter.2__AT1 b.counter.2__AT2)))
(let ((.def_368 (= b.counter.3__AT1 b.counter.3__AT2)))
(let ((.def_371 (and .def_368 .def_370)))
(let ((.def_374 (and .def_371 .def_373)))
(let ((.def_377 (and .def_374 .def_376)))
(let ((.def_469 (and .def_377 .def_380)))
(let ((.def_470 (or .def_288 .def_469)))
(let ((.def_471 (or b.EVENT.1__AT1 .def_470)))
(let ((.def_457 (* .def_232 b.delta__AT1)))
(let ((.def_458 (* (- 1.0) b.speed_y__AT2)))
(let ((.def_461 (+ .def_458 .def_457)))
(let ((.def_462 (+ b.speed_y__AT1 .def_461)))
(let ((.def_463 (= .def_462 0.0 )))
(let ((.def_447 (* b.delta__AT1 b.delta__AT1)))
(let ((.def_448 (* .def_235 .def_447)))
(let ((.def_449 (* (- 1.0) b.y__AT2)))
(let ((.def_453 (+ .def_449 .def_448)))
(let ((.def_292 (* b.speed_y__AT1 b.delta__AT1)))
(let ((.def_454 (+ .def_292 .def_453)))
(let ((.def_455 (+ b.y__AT1 .def_454)))
(let ((.def_456 (= .def_455 0.0 )))
(let ((.def_464 (and .def_456 .def_463)))
(let ((.def_359 (= b.x__AT1 b.x__AT2)))
(let ((.def_465 (and .def_359 .def_464)))
(let ((.def_466 (or .def_288 .def_465)))
(let ((.def_362 (= b.y__AT1 b.y__AT2)))
(let ((.def_442 (and .def_359 .def_362)))
(let ((.def_365 (= b.speed_y__AT1 b.speed_y__AT2)))
(let ((.def_443 (and .def_365 .def_442)))
(let ((.def_439 (= b.delta__AT1 0.0 )))
(let ((.def_440 (and .def_287 .def_439)))
(let ((.def_441 (not .def_440)))
(let ((.def_444 (or .def_441 .def_443)))
(let ((.def_445 (or b.EVENT.1__AT1 .def_444)))
(let ((.def_432 (and .def_365 .def_377)))
(let ((.def_433 (or b.bool_atom__AT1 .def_432)))
(let ((.def_407 (or b.counter.0__AT1 .def_406)))
(let ((.def_405 (or .def_191 b.counter.0__AT2)))
(let ((.def_408 (and .def_405 .def_407)))
(let ((.def_409 (and .def_396 .def_408)))
(let ((.def_410 (or b.counter.1__AT1 .def_409)))
(let ((.def_404 (or .def_181 b.counter.1__AT2)))
(let ((.def_411 (and .def_404 .def_410)))
(let ((.def_423 (and .def_401 .def_411)))
(let ((.def_424 (or b.counter.2__AT1 .def_423)))
(let ((.def_418 (and .def_191 .def_396)))
(let ((.def_419 (or b.counter.1__AT1 .def_418)))
(let ((.def_420 (and .def_404 .def_419)))
(let ((.def_421 (and b.counter.2__AT2 .def_420)))
(let ((.def_422 (or .def_186 .def_421)))
(let ((.def_425 (and .def_422 .def_424)))
(let ((.def_426 (and b.counter.3__AT2 .def_425)))
(let ((.def_427 (or b.counter.3__AT1 .def_426)))
(let ((.def_412 (and b.counter.2__AT2 .def_411)))
(let ((.def_413 (or b.counter.2__AT1 .def_412)))
(let ((.def_399 (or b.counter.1__AT1 b.counter.1__AT2)))
(let ((.def_397 (and b.counter.0__AT2 .def_396)))
(let ((.def_398 (or .def_181 .def_397)))
(let ((.def_400 (and .def_398 .def_399)))
(let ((.def_402 (and .def_400 .def_401)))
(let ((.def_403 (or .def_186 .def_402)))
(let ((.def_414 (and .def_403 .def_413)))
(let ((.def_416 (and .def_414 .def_415)))
(let ((.def_200 (not b.counter.3__AT1)))
(let ((.def_417 (or .def_200 .def_416)))
(let ((.def_428 (and .def_417 .def_427)))
(let ((.def_178 (* b.speed_y__AT1 b.speed_y__AT1)))
(let ((.def_394 (= .def_178 .def_393)))
(let ((.def_391 (+ b.speed_y__AT1 b.speed_y__AT2)))
(let ((.def_392 (= .def_391 0.0 )))
(let ((.def_395 (and .def_392 .def_394)))
(let ((.def_429 (and .def_395 .def_428)))
(let ((.def_390 (not b.bool_atom__AT1)))
(let ((.def_430 (or .def_390 .def_429)))
(let ((.def_386 (<= 0.0 b.speed_y__AT1)))
(let ((.def_387 (not .def_386)))
(let ((.def_279 (* (- 1.0) b.x__AT1)))
(let ((.def_280 (* b.x__AT1 .def_279)))
(let ((.def_385 (= b.y__AT1 .def_280)))
(let ((.def_388 (and .def_385 .def_387)))
(let ((.def_389 (= b.bool_atom__AT1 .def_388)))
(let ((.def_431 (and .def_389 .def_430)))
(let ((.def_434 (and .def_431 .def_433)))
(let ((.def_435 (and .def_359 .def_434)))
(let ((.def_436 (and .def_362 .def_435)))
(let ((.def_437 (or .def_287 .def_436)))
(let ((.def_438 (or b.EVENT.1__AT1 .def_437)))
(let ((.def_446 (and .def_438 .def_445)))
(let ((.def_467 (and .def_446 .def_466)))
(let ((.def_346 (= b.time__AT1 b.time__AT2)))
(let ((.def_360 (and .def_346 .def_359)))
(let ((.def_363 (and .def_360 .def_362)))
(let ((.def_366 (and .def_363 .def_365)))
(let ((.def_378 (and .def_366 .def_377)))
(let ((.def_381 (and .def_378 .def_380)))
(let ((.def_382 (or .def_274 .def_381)))
(let ((.def_349 (* (- 1.0) b.time__AT2)))
(let ((.def_352 (+ b.delta__AT1 .def_349)))
(let ((.def_353 (+ b.time__AT1 .def_352)))
(let ((.def_354 (= .def_353 0.0 )))
(let ((.def_355 (or .def_288 .def_354)))
(let ((.def_356 (or b.EVENT.1__AT1 .def_355)))
(let ((.def_347 (or .def_287 .def_346)))
(let ((.def_348 (or b.EVENT.1__AT1 .def_347)))
(let ((.def_357 (and .def_348 .def_356)))
(let ((.def_383 (and .def_357 .def_382)))
(let ((.def_343 (= .def_288 b.event_is_timed__AT2)))
(let ((.def_341 (= b.event_is_timed__AT1 .def_287)))
(let ((.def_344 (and .def_341 .def_343)))
(let ((.def_384 (and .def_344 .def_383)))
(let ((.def_468 (and .def_384 .def_467)))
(let ((.def_472 (and .def_468 .def_471)))
(let ((.def_475 (and .def_472 .def_474)))
(let ((.def_476 (and .def_274 .def_475)))
(let ((.def_495 (and .def_476 .def_494)))
(let ((.def_498 (and .def_495 .def_497)))
(let ((.def_297 (* b.x__AT1 b.x__AT1)))
(let ((.def_293 (* 5.0 b.delta__AT1)))
(let ((.def_294 (* b.delta__AT1 .def_293)))
(let ((.def_295 (* (- 1.0) .def_294)))
(let ((.def_300 (+ .def_295 .def_297)))
(let ((.def_301 (+ .def_292 .def_300)))
(let ((.def_302 (+ b.y__AT1 .def_301)))
(let ((.def_303 (<= 0.0 .def_302)))
(let ((.def_333 (not .def_303)))
(let ((.def_315 (* (- 10.0) b.delta__AT1)))
(let ((.def_316 (+ b.speed_y__AT1 .def_315)))
(let ((.def_317 (<= 0.0 .def_316)))
(let ((.def_334 (and .def_317 .def_333)))
(let ((.def_326 (+ b.y__AT1 .def_297)))
(let ((.def_331 (<= 0.0 .def_326)))
(let ((.def_328 (<= b.speed_y__AT1 0.0 )))
(let ((.def_332 (or .def_328 .def_331)))
(let ((.def_335 (or .def_332 .def_334)))
(let ((.def_327 (<= .def_326 0.0 )))
(let ((.def_329 (and .def_327 .def_328)))
(let ((.def_321 (<= .def_316 0.0 )))
(let ((.def_322 (not .def_321)))
(let ((.def_319 (= .def_302 0.0 )))
(let ((.def_320 (not .def_319)))
(let ((.def_323 (or .def_320 .def_322)))
(let ((.def_318 (or .def_303 .def_317)))
(let ((.def_324 (and .def_318 .def_323)))
(let ((.def_305 (* 20.0 b.x__AT1)))
(let ((.def_306 (* b.x__AT1 .def_305)))
(let ((.def_307 (+ .def_178 .def_306)))
(let ((.def_308 (* 20.0 b.y__AT1)))
(let ((.def_310 (+ .def_308 .def_307)))
(let ((.def_313 (<= .def_310 0.0 )))
(let ((.def_314 (not .def_313)))
(let ((.def_325 (or .def_314 .def_324)))
(let ((.def_330 (or .def_325 .def_329)))
(let ((.def_336 (and .def_330 .def_335)))
(let ((.def_311 (<= 0.0 .def_310)))
(let ((.def_312 (not .def_311)))
(let ((.def_337 (or .def_312 .def_336)))
(let ((.def_291 (not .def_290)))
(let ((.def_304 (or .def_291 .def_303)))
(let ((.def_338 (and .def_304 .def_337)))
(let ((.def_339 (or .def_288 .def_338)))
(let ((.def_281 (<= .def_280 b.y__AT1)))
(let ((.def_282 (and .def_58 .def_281)))
(let ((.def_277 (or .def_274 .def_276)))
(let ((.def_267 (or .def_181 .def_191)))
(let ((.def_271 (or b.counter.3__AT1 .def_267)))
(let ((.def_268 (or b.counter.2__AT1 .def_267)))
(let ((.def_266 (or .def_186 .def_191)))
(let ((.def_269 (and .def_266 .def_268)))
(let ((.def_270 (or .def_200 .def_269)))
(let ((.def_272 (and .def_270 .def_271)))
(let ((.def_278 (and .def_272 .def_277)))
(let ((.def_283 (and .def_278 .def_282)))
(let ((.def_66 (<= 0.0 b.delta__AT0)))
(let ((.def_46 (not b.EVENT.0__AT0)))
(let ((.def_44 (not b.EVENT.1__AT0)))
(let ((.def_63 (and .def_44 .def_46)))
(let ((.def_64 (not .def_63)))
(let ((.def_262 (or .def_64 .def_66)))
(let ((.def_263 (or b.EVENT.1__AT0 .def_262)))
(let ((.def_165 (= b.bool_atom__AT0 b.bool_atom__AT1)))
(let ((.def_160 (= b.counter.0__AT0 b.counter.0__AT1)))
(let ((.def_157 (= b.counter.1__AT0 b.counter.1__AT1)))
(let ((.def_154 (= b.counter.2__AT0 b.counter.2__AT1)))
(let ((.def_152 (= b.counter.3__AT0 b.counter.3__AT1)))
(let ((.def_155 (and .def_152 .def_154)))
(let ((.def_158 (and .def_155 .def_157)))
(let ((.def_161 (and .def_158 .def_160)))
(let ((.def_258 (and .def_161 .def_165)))
(let ((.def_259 (or .def_64 .def_258)))
(let ((.def_260 (or b.EVENT.1__AT0 .def_259)))
(let ((.def_246 (* b.delta__AT0 .def_232)))
(let ((.def_247 (* (- 1.0) b.speed_y__AT1)))
(let ((.def_250 (+ .def_247 .def_246)))
(let ((.def_251 (+ b.speed_y__AT0 .def_250)))
(let ((.def_252 (= .def_251 0.0 )))
(let ((.def_236 (* b.delta__AT0 b.delta__AT0)))
(let ((.def_237 (* .def_235 .def_236)))
(let ((.def_239 (* (- 1.0) b.y__AT1)))
(let ((.def_242 (+ .def_239 .def_237)))
(let ((.def_69 (* b.delta__AT0 b.speed_y__AT0)))
(let ((.def_243 (+ .def_69 .def_242)))
(let ((.def_244 (+ b.y__AT0 .def_243)))
(let ((.def_245 (= .def_244 0.0 )))
(let ((.def_253 (and .def_245 .def_252)))
(let ((.def_143 (= b.x__AT0 b.x__AT1)))
(let ((.def_254 (and .def_143 .def_253)))
(let ((.def_255 (or .def_64 .def_254)))
(let ((.def_146 (= b.y__AT0 b.y__AT1)))
(let ((.def_227 (and .def_143 .def_146)))
(let ((.def_149 (= b.speed_y__AT0 b.speed_y__AT1)))
(let ((.def_228 (and .def_149 .def_227)))
(let ((.def_224 (= b.delta__AT0 0.0 )))
(let ((.def_225 (and .def_63 .def_224)))
(let ((.def_226 (not .def_225)))
(let ((.def_229 (or .def_226 .def_228)))
(let ((.def_230 (or b.EVENT.1__AT0 .def_229)))
(let ((.def_217 (and .def_149 .def_161)))
(let ((.def_218 (or b.bool_atom__AT0 .def_217)))
(let ((.def_192 (or b.counter.0__AT0 .def_191)))
(let ((.def_27 (not b.counter.0__AT0)))
(let ((.def_190 (or .def_27 b.counter.0__AT1)))
(let ((.def_193 (and .def_190 .def_192)))
(let ((.def_194 (and .def_181 .def_193)))
(let ((.def_195 (or b.counter.1__AT0 .def_194)))
(let ((.def_25 (not b.counter.1__AT0)))
(let ((.def_189 (or .def_25 b.counter.1__AT1)))
(let ((.def_196 (and .def_189 .def_195)))
(let ((.def_208 (and .def_186 .def_196)))
(let ((.def_209 (or b.counter.2__AT0 .def_208)))
(let ((.def_203 (and .def_27 .def_181)))
(let ((.def_204 (or b.counter.1__AT0 .def_203)))
(let ((.def_205 (and .def_189 .def_204)))
(let ((.def_206 (and b.counter.2__AT1 .def_205)))
(let ((.def_30 (not b.counter.2__AT0)))
(let ((.def_207 (or .def_30 .def_206)))
(let ((.def_210 (and .def_207 .def_209)))
(let ((.def_211 (and b.counter.3__AT1 .def_210)))
(let ((.def_212 (or b.counter.3__AT0 .def_211)))
(let ((.def_197 (and b.counter.2__AT1 .def_196)))
(let ((.def_198 (or b.counter.2__AT0 .def_197)))
(let ((.def_184 (or b.counter.1__AT0 b.counter.1__AT1)))
(let ((.def_182 (and b.counter.0__AT1 .def_181)))
(let ((.def_183 (or .def_25 .def_182)))
(let ((.def_185 (and .def_183 .def_184)))
(let ((.def_187 (and .def_185 .def_186)))
(let ((.def_188 (or .def_30 .def_187)))
(let ((.def_199 (and .def_188 .def_198)))
(let ((.def_201 (and .def_199 .def_200)))
(let ((.def_33 (not b.counter.3__AT0)))
(let ((.def_202 (or .def_33 .def_201)))
(let ((.def_213 (and .def_202 .def_212)))
(let ((.def_83 (* b.speed_y__AT0 b.speed_y__AT0)))
(let ((.def_179 (= .def_83 .def_178)))
(let ((.def_176 (+ b.speed_y__AT0 b.speed_y__AT1)))
(let ((.def_177 (= .def_176 0.0 )))
(let ((.def_180 (and .def_177 .def_179)))
(let ((.def_214 (and .def_180 .def_213)))
(let ((.def_175 (not b.bool_atom__AT0)))
(let ((.def_215 (or .def_175 .def_214)))
(let ((.def_171 (<= 0.0 b.speed_y__AT0)))
(let ((.def_172 (not .def_171)))
(let ((.def_51 (* (- 1.0) b.x__AT0)))
(let ((.def_52 (* b.x__AT0 .def_51)))
(let ((.def_170 (= b.y__AT0 .def_52)))
(let ((.def_173 (and .def_170 .def_172)))
(let ((.def_174 (= b.bool_atom__AT0 .def_173)))
(let ((.def_216 (and .def_174 .def_215)))
(let ((.def_219 (and .def_216 .def_218)))
(let ((.def_220 (and .def_143 .def_219)))
(let ((.def_221 (and .def_146 .def_220)))
(let ((.def_222 (or .def_63 .def_221)))
(let ((.def_223 (or b.EVENT.1__AT0 .def_222)))
(let ((.def_231 (and .def_223 .def_230)))
(let ((.def_256 (and .def_231 .def_255)))
(let ((.def_130 (= b.time__AT0 b.time__AT1)))
(let ((.def_144 (and .def_130 .def_143)))
(let ((.def_147 (and .def_144 .def_146)))
(let ((.def_150 (and .def_147 .def_149)))
(let ((.def_162 (and .def_150 .def_161)))
(let ((.def_166 (and .def_162 .def_165)))
(let ((.def_167 (or .def_44 .def_166)))
(let ((.def_133 (* (- 1.0) b.time__AT1)))
(let ((.def_136 (+ b.delta__AT0 .def_133)))
(let ((.def_137 (+ b.time__AT0 .def_136)))
(let ((.def_138 (= .def_137 0.0 )))
(let ((.def_139 (or .def_64 .def_138)))
(let ((.def_140 (or b.EVENT.1__AT0 .def_139)))
(let ((.def_131 (or .def_63 .def_130)))
(let ((.def_132 (or b.EVENT.1__AT0 .def_131)))
(let ((.def_141 (and .def_132 .def_140)))
(let ((.def_168 (and .def_141 .def_167)))
(let ((.def_127 (= .def_64 b.event_is_timed__AT1)))
(let ((.def_125 (= b.event_is_timed__AT0 .def_63)))
(let ((.def_128 (and .def_125 .def_127)))
(let ((.def_169 (and .def_128 .def_168)))
(let ((.def_257 (and .def_169 .def_256)))
(let ((.def_261 (and .def_257 .def_260)))
(let ((.def_264 (and .def_261 .def_263)))
(let ((.def_265 (and .def_44 .def_264)))
(let ((.def_284 (and .def_265 .def_283)))
(let ((.def_28 (and .def_25 .def_27)))
(let ((.def_31 (and .def_28 .def_30)))
(let ((.def_285 (and .def_31 .def_284)))
(let ((.def_75 (* b.x__AT0 b.x__AT0)))
(let ((.def_71 (* 5.0 b.delta__AT0)))
(let ((.def_72 (* b.delta__AT0 .def_71)))
(let ((.def_73 (* (- 1.0) .def_72)))
(let ((.def_78 (+ .def_73 .def_75)))
(let ((.def_79 (+ .def_69 .def_78)))
(let ((.def_80 (+ b.y__AT0 .def_79)))
(let ((.def_81 (<= 0.0 .def_80)))
(let ((.def_117 (not .def_81)))
(let ((.def_98 (* (- 1.0) b.speed_y__AT0)))
(let ((.def_99 (* 10.0 b.delta__AT0)))
(let ((.def_100 (+ .def_99 .def_98)))
(let ((.def_101 (<= .def_100 0.0 )))
(let ((.def_118 (and .def_101 .def_117)))
(let ((.def_110 (+ b.y__AT0 .def_75)))
(let ((.def_115 (<= 0.0 .def_110)))
(let ((.def_112 (<= b.speed_y__AT0 0.0 )))
(let ((.def_116 (or .def_112 .def_115)))
(let ((.def_119 (or .def_116 .def_118)))
(let ((.def_111 (<= .def_110 0.0 )))
(let ((.def_113 (and .def_111 .def_112)))
(let ((.def_105 (<= 0.0 .def_100)))
(let ((.def_106 (not .def_105)))
(let ((.def_103 (= .def_80 0.0 )))
(let ((.def_104 (not .def_103)))
(let ((.def_107 (or .def_104 .def_106)))
(let ((.def_102 (or .def_81 .def_101)))
(let ((.def_108 (and .def_102 .def_107)))
(let ((.def_85 (* 20.0 b.x__AT0)))
(let ((.def_86 (* b.x__AT0 .def_85)))
(let ((.def_87 (+ .def_83 .def_86)))
(let ((.def_88 (* 20.0 b.y__AT0)))
(let ((.def_90 (+ .def_88 .def_87)))
(let ((.def_93 (<= .def_90 0.0 )))
(let ((.def_94 (not .def_93)))
(let ((.def_109 (or .def_94 .def_108)))
(let ((.def_114 (or .def_109 .def_113)))
(let ((.def_120 (and .def_114 .def_119)))
(let ((.def_91 (<= 0.0 .def_90)))
(let ((.def_92 (not .def_91)))
(let ((.def_121 (or .def_92 .def_120)))
(let ((.def_67 (not .def_66)))
(let ((.def_82 (or .def_67 .def_81)))
(let ((.def_122 (and .def_82 .def_121)))
(let ((.def_123 (or .def_64 .def_122)))
(let ((.def_53 (<= .def_52 b.y__AT0)))
(let ((.def_59 (and .def_53 .def_58)))
(let ((.def_47 (or .def_44 .def_46)))
(let ((.def_37 (or .def_25 .def_27)))
(let ((.def_41 (or b.counter.3__AT0 .def_37)))
(let ((.def_38 (or b.counter.2__AT0 .def_37)))
(let ((.def_36 (or .def_27 .def_30)))
(let ((.def_39 (and .def_36 .def_38)))
(let ((.def_40 (or .def_33 .def_39)))
(let ((.def_42 (and .def_40 .def_41)))
(let ((.def_48 (and .def_42 .def_47)))
(let ((.def_60 (and .def_48 .def_59)))
(let ((.def_34 (and .def_31 .def_33)))
(let ((.def_22 (= b.y__AT0 10.0 )))
(let ((.def_18 (= b.x__AT0 0.0 )))
(let ((.def_14 (= b.time__AT0 0.0 )))
(let ((.def_16 (and .def_14 b.event_is_timed__AT0)))
(let ((.def_19 (and .def_16 .def_18)))
(let ((.def_23 (and .def_19 .def_22)))
(let ((.def_35 (and .def_23 .def_34)))
(let ((.def_61 (and .def_35 .def_60)))
(let ((.def_7 (and .def_4 .def_6)))
(let ((.def_10 (and .def_7 .def_9)))
(let ((.def_11 (not .def_10)))
(let ((.def_62 (and .def_11 .def_61)))
(let ((.def_124 (and .def_62 .def_123)))
(let ((.def_286 (and .def_124 .def_285)))
(let ((.def_340 (and .def_286 .def_339)))
(let ((.def_499 (and .def_340 .def_498)))
(let ((.def_553 (and .def_499 .def_552)))
(let ((.def_712 (and .def_553 .def_711)))
(let ((.def_766 (and .def_712 .def_765)))
(let ((.def_919 (and .def_766 .def_918)))
(let ((.def_973 (and .def_919 .def_972)))
.def_973))))))))))))))))))))))))))))))))))))))))))))))))))))))))))))))))))))))))))))))))))))))))))))))))))))))))))))))))))))))))))))))))))))))))))))))))))))))))))))))))))))))))))))))))))))))))))))))))))))))))))))))))))))))))))))))))))))))))))))))))))))))))))))))))))))))))))))))))))))))))))))))))))))))))))))))))))))))))))))))))))))))))))))))))))))))))))))))))))))))))))))))))))))))))))))))))))))))))))))))))))))))))))))))))))))))))))))))))))))))))))))))))))))))))))))))))))))))))))))))))))))))))))))))))))))))))))))))))))))))))))))))))))))))))))))))))))))))))))))))))))))))))))))))))))))))))))))))))))))))))))))))))))))))))))))))))))))))))))))))))))))))))))))))))))))))))))))))))))))))))))))))))))))))))))))))))))))))))))))))))))))))))))))))))))))))))))))))))))))))))))))))))))))))))))))))))))))))))))))))))))))))))))))))))))))))))))))))))))))))))))))))
(check-sat)
(exit)
